
******************************************************************************
This program contains Ipopt, a library for large-scale nonlinear optimization.
 Ipopt is released as open source code under the Eclipse Public License (EPL).
         For more information visit http://projects.coin-or.org/Ipopt

This version of Ipopt was compiled from source code available at
    https://github.com/IDAES/Ipopt as part of the Institute for the Design of
    Advanced Energy Systems Process Systems Engineering Framework (IDAES PSE
    Framework) Copyright (c) 2018-2019. See https://github.com/IDAES/idaes-pse.

This version of Ipopt was compiled using HSL, a collection of Fortran codes
    for large-scale scientific computation.  All technical papers, sales and
    publicity material resulting from use of the HSL codes within IPOPT must
    contain the following acknowledgement:
        HSL, a collection of Fortran codes for large-scale scientific
        computation. See http://www.hsl.rl.ac.uk.
******************************************************************************

This is Ipopt version 3.13.2, running with linear solver ma27.

Number of nonzeros in equality constraint Jacobian...:      808
Number of nonzeros in inequality constraint Jacobian.:        0
Number of nonzeros in Lagrangian Hessian.............:      702

Total number of variables............................:      351
                     variables with only lower bounds:      108
                variables with lower and upper bounds:      189
                     variables with only upper bounds:        0
Total number of equality constraints.................:      350
Total number of inequality constraints...............:        0
        inequality constraints with only lower bounds:        0
   inequality constraints with lower and upper bounds:        0
        inequality constraints with only upper bounds:        0

iter    objective    inf_pr   inf_du lg(mu)  ||d||  lg(rg) alpha_du alpha_pr  ls
   0  0.0000000e+00 4.88e-01 4.44e-16  -1.0 0.00e+00    -  0.00e+00 0.00e+00   0
   1  3.9903943e+00 1.87e+00 3.64e+04  -1.0 2.86e+05    -  4.70e-01 4.30e-01h  1
   2  4.4958649e+00 1.78e+00 3.47e+04  -1.0 1.89e+05    -  7.72e-01 4.09e-02h  1
   3  5.0528313e+00 1.70e+00 3.35e+04  -1.0 2.52e+05    -  7.73e-01 4.24e-02h  1
   4  3.3254255e+01 1.73e-01 4.04e+03  -1.0 2.45e+05    -  7.85e-01 9.90e-01h  1
   5  3.9722940e+01 2.56e-03 2.67e+03  -1.0 3.57e+04    -  9.65e-01 9.90e-01h  1
   6  3.9889380e+01 3.43e-05 2.98e+01  -1.0 8.93e+02    -  9.90e-01 9.90e-01h  1
   7  3.9890880e+01 3.32e-05 1.83e+07  -1.0 5.11e+02    -  9.90e-01 3.09e-02f  6
   8  3.9894347e+01 3.22e-05 3.67e+07  -1.0 1.20e+03    -  9.93e-01 3.09e-02f  6
   9  4.0003651e+01 3.77e-05 5.70e+05  -1.0 1.19e+03    -  1.00e+00 9.90e-01H  1
iter    objective    inf_pr   inf_du lg(mu)  ||d||  lg(rg) alpha_du alpha_pr  ls
  10  4.0004136e+01 4.00e-07 2.03e+07  -1.0 5.15e+00    -  1.00e+00 9.90e-01h  1
  11  4.0004137e+01 4.00e-09 2.03e+09  -1.0 1.59e-02    -  1.00e+00 9.90e-01h  1
  12  4.0004137e+01 4.04e-11 2.03e+11  -1.0 1.58e-04    -  1.00e+00 9.90e-01h  1
In iteration 12, 27 Slacks too small, adjusting variable bounds
  13  4.0004137e+01 1.60e-11 2.03e+13  -1.0 1.58e-06    -  1.00e+00 9.90e-01h  1
  14  4.0004137e+01 3.92e-12 3.32e-01  -1.0 9.34e-07    -  1.00e+00 1.00e+00H  1
  15  4.0004123e+01 9.11e-12 2.07e+13  -9.0 1.40e+03    -  9.99e-01 1.07e-04f 14
  16  4.0004120e+01 9.23e-12 2.07e+13  -9.0 1.23e+03    -  9.99e-01 3.04e-05f 16
  17  4.0004113e+01 1.18e-11 2.07e+13  -9.0 1.23e+03    -  1.00e+00 6.10e-05f 15
  18  4.0004110e+01 1.17e-11 2.07e+13  -9.0 1.23e+03    -  1.00e+00 3.05e-05f 16
  19  4.0004103e+01 1.43e-11 2.07e+13  -9.0 1.23e+03    -  1.00e+00 6.10e-05f 15
iter    objective    inf_pr   inf_du lg(mu)  ||d||  lg(rg) alpha_du alpha_pr  ls
  20  3.9891078e+01 6.25e-04 5.56e+06  -9.0 1.23e+03    -  1.00e+00 1.00e+00f  1
  21  3.9890156e+01 5.97e-09 1.69e-04  -9.0 9.53e+00    -  1.00e+00 1.00e+00h  1
  22  3.9890156e+01 7.22e-12 2.91e-11  -9.0 6.16e-05    -  1.00e+00 1.00e+00h  1

Number of Iterations....: 22

                                   (scaled)                 (unscaled)
Objective...............:   3.9890156132780461e+01    3.9890156132780461e+01
Dual infeasibility......:   2.9103830456733704e-11    2.9103830456733704e-11
Constraint violation....:   7.2182260169029178e-12    7.2182260169029178e-12
Complementarity.........:   9.0909090909161241e-10    9.0909090909161241e-10
Overall NLP error.......:   8.7606559130460321e-12    9.0909090909161241e-10


Number of objective function evaluations             = 128
Number of objective gradient evaluations             = 23
Number of equality constraint evaluations            = 128
Number of inequality constraint evaluations          = 0
Number of equality constraint Jacobian evaluations   = 23
Number of inequality constraint Jacobian evaluations = 0
Number of Lagrangian Hessian evaluations             = 22
Total CPU secs in IPOPT (w/o function evaluations)   =      0.034
Total CPU secs in NLP function evaluations           =      0.689

EXIT: Optimal Solution Found.
